\ENCODING=ISO-8859-1
\Problem name: ilog.cplex

Minimize
 obj: 37.67 x0 + 40.72 x1 + 40.69 x2 + 37.24 x3 + 39.27 x4 + 46.39 x5
      + 44.28 x6 + 49.05 x7 + 44.72 x8 + 31.47 x9 + 112.16 x10 + 31.95 x11
      + 12.86 x12 + 12.94 x13 + 11.57 x14 + 6.36 x15 + 109.42 x16 + 22.07 x17
      + 14.92 x18 + 14.79 x19 + 7.08 x20 + 14.95 x21 + 14.89 x22 + 174.95 x23
      + 33.55 x24 + 19.92 x25 + 3.04 x26 + 9.3 x27 + 8.5 x28 + 129.45 x29
      + 37.72 x30 + 9.73 x31 + 7.26 x32 + 12.28 x33 + 14.28 x34 + 138.56 x35
      + 39.13 x36 + 8.52 x37 + 3.7 x38 + 6.8 x39 + 9.7 x40 + 126.58 x41
      + 36.61 x42 + 17.35 x43 + 18.26 x44 + 7.3 x45 + 10.8 x46 + 174.3 x47
      + 21.66 x48 + 7.2 x49 + 18.36 x50 + 2.72 x51 + 4.51 x52 + 184.3 x53
      + 38.13 x54 + 6.09 x55 + 19.11 x56 + 10.8 x57 + 12.67 x58 + 180.83 x59
      + 29.96 x60 + 11.18 x61 + 2 x62 + 10.78 x63 + 13.68 x64 + 143.51 x65
      + 23.16 x66 + 18.33 x67 + 9.36 x68 + 10.77 x69 + 13.22 x70 + 16.34 x71
      + 13.1 y0 + 23.01 y1 + 23.88 y2 + 37.48 y3 + 41.72 y4 + 199.86 y5
      + 12.26 y6 + 18.15 y7 + 19.44 y8 + 28.84 y9 + 34.11 y10 + 140.53 y11
      + 13.92 y12 + 13.92 y13 + 24.16 y14 + 28.28 y15 + 39.14 y16 + 43.54 y17
      + 135.09 y18 + 10.15 y19 + 17.87 y20 + 24.96 y21 + 24.96 y22 + 32.63 y23
      + 32.63 y24 + 187.88 y25 + 17.71 y26 + 20.71 y27 + 21.99 y28 + 24.44 y29
      + 40.61 y30 + 101.14 y31 + 19.04 y32 + 28.16 y33 + 28.3 y34 + 31.3 y35
      + 48.84 y36 + 138.79 y37 + 18.89 y38 + 29.18 y39 + 29.66 y40 + 34.79 y41
      + 39 y42 + 136.29 y43 + 19.77 y44 + 24.97 y45 + 25.67 y46 + 27.91 y47
      + 35.44 y48 + 152.52 y49 + 27.73 y50 + 32.33 y51 + 32.99 y52 + 54.1 y53
      + 156.1 y54 + 16.22 y55 + 24.65 y56 + 25.72 y57 + 28.13 y58 + 28.13 y59
      + 31.98 y60 + 35.44 y61 + 182.45 y62
Subject To
 N1:      x10 + x11 + x12 + x13 + x14 + x15  = 12
 N2:      x16 + x17 + x18 + x19 + x20 + x21 + x22  = 17
 N3:      x23 + x24 + x25 + x26 + x27 + x28  = 11
 N4:      x29 + x30 + x31 + x32 + x33 + x34  = 29
 N5:      x35 + x36 + x37 + x38 + x39 + x40  = 19
 N6:      x41 + x42 + x43 + x44 + x45 + x46  = 14
 N7:      x47 + x48 + x49 + x50 + x51 + x52  = 21
 N8:      x53 + x54 + x55 + x56 + x57 + x58  = 17
 N9:      x59 + x60 + x61 + x62 + x63 + x64  = 18
 N10:     x65 + x66 + x67 + x68 + x69 + x70 + x71  = 29
 N12:     x0 + x11 + x18 + x25 + x28 + x49 + x68 - y0 - y1 - y2 - y3 - y4 - y5
           = 0
 N13:     x1 + x17 + x33 + x46 - y6 - y7 - y8 - y9 - y10 - y11  = 0
 N14:     x2 + x13 + x24 + x32 + x38 + x67 - y12 - y13 - y14 - y15 - y16 - y17
          - y18  = 0
 N15:     x3 + x30 + x51 + x71 - y19 - y20 - y21 - y22 - y23 - y24 - y25  = 0
 N16:     x4 + x36 + x45 + x50 + x55 - y26 - y27 - y28 - y29 - y30 - y31  = 0
 N17:     x5 + x31 + x37 + x42 - y32 - y33 - y34 - y35 - y36 - y37  = 0
 N18:     x6 + x22 + x26 + x48 + x56 + x57 + x63 + x69 - y38 - y39 - y40 - y41
          - y42 - y43  = 0
 N19:     x7 + x12 + x14 + x15 + x19 + x20 + x44 + x54 + x61 + x64 - y44 - y45
          - y46 - y47 - y48 - y49  = 0
 N20:     x8 + x27 + x52 + x58 + x60 + x70 - y50 - y51 - y52 - y53 - y54  = 0
 N21:     x9 + x21 + x34 + x39 + x40 + x43 + x62 + x66 - y55 - y56 - y57 - y58
          - y59 - y60 - y61 - y62  = 0
 Y0_1_0:  y0 <= 7
 Y0_1_1:  y1 <= 7
 Y0_1_2:  y2 <= 8
 Y0_1_3:  y3 <= 8
 Y0_1_4:  y4 <= 8
 Y0_1_5:  y5 <= 1000
 Y0_2_0:  y6 <= 5
 Y0_2_1:  y7 <= 6
 Y0_2_2:  y8 <= 8
 Y0_2_3:  y9 <= 7
 Y0_2_4:  y10 <= 5
 Y0_2_5:  y11 <= 1000
 Y0_3_0:  y12 <= 1
 Y0_3_1:  y13 <= 6
 Y0_3_2:  y14 <= 8
 Y0_3_3:  y15 <= 9
 Y0_3_4:  y16 <= 9
 Y0_3_5:  y17 <= 5
 Y0_3_6:  y18 <= 1000
 Y0_4_0:  y19 <= 7
 Y0_4_1:  y20 <= 6
 Y0_4_2:  y21 <= 6
 Y0_4_3:  y22 <= 2
 Y0_4_4:  y23 <= 5
 Y0_4_5:  y24 <= 9
 Y0_4_6:  y25 <= 1000
 Y0_5_0:  y26 <= 6
 Y0_5_1:  y27 <= 5
 Y0_5_2:  y28 <= 7
 Y0_5_3:  y29 <= 9
 Y0_5_4:  y30 <= 9
 Y0_5_5:  y31 <= 1000
 Y0_6_0:  y32 <= 9
 Y0_6_1:  y33 <= 5
 Y0_6_2:  y34 <= 5
 Y0_6_3:  y35 <= 7
 Y0_6_4:  y36 <= 7
 Y0_6_5:  y37 <= 1000
 Y0_7_0:  y38 <= 6
 Y0_7_1:  y39 <= 7
 Y0_7_2:  y40 <= 15
 Y0_7_3:  y41 <= 5
 Y0_7_4:  y42 <= 9
 Y0_7_5:  y43 <= 1000
 Y0_8_0:  y44 <= 9
 Y0_8_1:  y45 <= 15
 Y0_8_2:  y46 <= 5
 Y0_8_3:  y47 <= 1
 Y0_8_4:  y48 <= 5
 Y0_8_5:  y49 <= 1000
 Y0_9_0:  y50 <= 5
 Y0_9_1:  y51 <= 8
 Y0_9_2:  y52 <= 17
 Y0_9_3:  y53 <= 5
 Y0_9_4:  y54 <= 1000
 Y0_10_0: y55 <= 7
 Y0_10_1: y56 <= 8
 Y0_10_2: y57 <= 8
 Y0_10_3: y58 <= 6
 Y0_10_4: y59 <= 1
 Y0_10_5: y60 <= 8
 Y0_10_6: y61 <= 9
 Y0_10_7: y62 <= 1000
Bounds
 0 <= x0 <= 1000
 0 <= x1 <= 1000
 0 <= x2 <= 1000
 0 <= x3 <= 1000
 0 <= x4 <= 1000
 0 <= x5 <= 1000
 0 <= x6 <= 1000
 0 <= x7 <= 1000
 0 <= x8 <= 1000
 0 <= x9 <= 1000
 0 <= x10 <= 1000
 0 <= x11 <= 7
 0 <= x12 <= 9
 0 <= x13 <= 9
 0 <= x14 <= 7
 0 <= x15 <= 9
 0 <= x16 <= 1000
 0 <= x17 <= 6
 0 <= x18 <= 5
 0 <= x19 <= 8
 0 <= x20 <= 9
 0 <= x21 <= 6
 0 <= x22 <= 6
 0 <= x23 <= 1000
 0 <= x24 <= 7
 0 <= x25 <= 7
 0 <= x26 <= 6
 0 <= x27 <= 7
 0 <= x28 <= 5
 0 <= x29 <= 1000
 0 <= x30 <= 9
 0 <= x31 <= 6
 0 <= x32 <= 9
 0 <= x33 <= 5
 0 <= x34 <= 9
 0 <= x35 <= 1000
 0 <= x36 <= 8
 0 <= x37 <= 7
 0 <= x38 <= 9
 0 <= x39 <= 9
 0 <= x40 <= 8
 0 <= x41 <= 1000
 0 <= x42 <= 6
 0 <= x43 <= 9
 0 <= x44 <= 7
 0 <= x45 <= 8
 0 <= x46 <= 9
 0 <= x47 <= 1000
 0 <= x48 <= 7
 0 <= x49 <= 7
 0 <= x50 <= 8
 0 <= x51 <= 6
 0 <= x52 <= 5
 0 <= x53 <= 1000
 0 <= x54 <= 6
 0 <= x55 <= 6
 0 <= x56 <= 9
 0 <= x57 <= 7
 0 <= x58 <= 9
 0 <= x59 <= 1000
 0 <= x60 <= 9
 0 <= x61 <= 6
 0 <= x62 <= 7
 0 <= x63 <= 9
 0 <= x64 <= 7
 0 <= x65 <= 1000
 0 <= x66 <= 7
 0 <= x67 <= 5
 0 <= x68 <= 6
 0 <= x69 <= 8
 0 <= x70 <= 9
 0 <= x71 <= 9
 0 <= y0 <= 1001
 0 <= y1 <= 1001
 0 <= y2 <= 1001
 0 <= y3 <= 1001
 0 <= y4 <= 1001
 0 <= y5 <= 1001
 0 <= y6 <= 1001
 0 <= y7 <= 1001
 0 <= y8 <= 1001
 0 <= y9 <= 1001
 0 <= y10 <= 1001
 0 <= y11 <= 1001
 0 <= y12 <= 1001
 0 <= y13 <= 1001
 0 <= y14 <= 1001
 0 <= y15 <= 1001
 0 <= y16 <= 1001
 0 <= y17 <= 1001
 0 <= y18 <= 1001
 0 <= y19 <= 1001
 0 <= y20 <= 1001
 0 <= y21 <= 1001
 0 <= y22 <= 1001
 0 <= y23 <= 1001
 0 <= y24 <= 1001
 0 <= y25 <= 1001
 0 <= y26 <= 1001
 0 <= y27 <= 1001
 0 <= y28 <= 1001
 0 <= y29 <= 1001
 0 <= y30 <= 1001
 0 <= y31 <= 1001
 0 <= y32 <= 1001
 0 <= y33 <= 1001
 0 <= y34 <= 1001
 0 <= y35 <= 1001
 0 <= y36 <= 1001
 0 <= y37 <= 1001
 0 <= y38 <= 1001
 0 <= y39 <= 1001
 0 <= y40 <= 1001
 0 <= y41 <= 1001
 0 <= y42 <= 1001
 0 <= y43 <= 1001
 0 <= y44 <= 1001
 0 <= y45 <= 1001
 0 <= y46 <= 1001
 0 <= y47 <= 1001
 0 <= y48 <= 1001
 0 <= y49 <= 1001
 0 <= y50 <= 1001
 0 <= y51 <= 1001
 0 <= y52 <= 1001
 0 <= y53 <= 1001
 0 <= y54 <= 1001
 0 <= y55 <= 1001
 0 <= y56 <= 1001
 0 <= y57 <= 1001
 0 <= y58 <= 1001
 0 <= y59 <= 1001
 0 <= y60 <= 1001
 0 <= y61 <= 1001
 0 <= y62 <= 1001
End
